250 3813
2 3 4 5 6 7 8 9 10 12 13 14 15 16 17 18 19 20 21 23 24 25 126 127 128 129 131 132 133 134 135 136 137 138 139 140 141 142 143 144 145 146 147 148 149 150 201 202 203 205 207 208 209 210 211 212 213 214 215 216 220 221 225 226 227 228 229 230 231 233 234 235 236 237 238 239 240 241 242 243 245 246 247 248 249 250 
1 3 4 5 6 7 10 11 12 13 15 16 17 18 19 20 22 23 24 25 127 130 131 132 133 136 139 140 143 145 148 150 201 207 209 217 223 
1 2 4 6 7 10 12 13 15 18 20 23 24 132 133 139 140 150 244 
1 2 3 5 6 7 8 9 10 11 12 13 14 15 16 17 18 19 20 21 22 23 24 25 126 127 128 129 130 131 132 133 134 135 136 137 138 139 140 141 142 143 144 145 146 147 148 149 150 201 202 203 204 206 209 210 211 212 214 215 216 217 221 223 224 233 235 239 244 246 249 
1 2 4 7 8 9 12 14 15 16 17 18 19 21 23 24 25 126 127 128 129 131 132 134 135 137 138 140 141 143 144 145 146 147 148 149 150 183 208 210 211 214 215 221 237 243 245 
1 2 3 4 7 10 13 18 20 22 23 24 130 132 133 136 139 143 145 149 204 209 218 222 246 
1 2 3 4 5 6 8 9 10 11 12 13 14 15 16 17 18 19 20 21 22 23 24 25 126 127 128 129 130 131 132 133 134 135 136 137 138 139 140 141 142 143 144 145 146 148 149 150 201 204 210 211 212 214 215 216 217 219 222 233 
1 4 5 7 9 10 12 14 15 16 17 18 19 23 24 25 126 127 128 129 131 132 134 135 137 138 140 141 142 143 144 145 146 147 148 149 150 208 209 210 211 214 215 216 220 221 225 226 227 228 229 230 233 234 235 237 238 239 243 245 246 248 249 250 
1 4 5 7 8 12 14 15 16 17 18 21 23 24 25 126 128 129 131 132 134 135 137 138 140 141 143 144 145 147 148 149 150 202 205 209 210 211 213 214 215 216 220 221 226 228 230 233 234 235 237 238 239 243 245 246 
1 2 3 4 6 7 8 11 12 13 15 16 17 18 19 20 21 22 23 24 25 126 127 128 129 130 131 132 133 136 137 138 139 140 141 142 143 144 145 146 147 148 149 150 203 209 212 214 216 217 224 226 231 233 235 237 238 239 241 242 244 246 247 249 
2 4 7 10 12 16 18 20 21 22 23 24 25 130 132 133 140 142 143 145 149 150 201 212 217 
1 2 3 4 5 7 8 9 10 11 13 14 15 16 17 18 19 21 23 24 25 126 127 128 129 130 131 132 134 135 136 137 138 139 140 141 142 143 144 145 146 147 148 149 150 202 205 207 208 209 210 211 212 213 214 215 216 220 221 223 225 226 227 228 229 230 231 232 233 234 235 237 238 239 240 241 242 243 245 246 247 248 249 250 
1 2 3 4 6 7 10 12 15 17 18 19 20 21 22 23 24 25 127 129 130 132 133 136 139 140 142 143 144 145 148 149 150 204 205 215 218 219 222 235 246 
1 4 5 7 8 9 12 15 16 17 18 19 21 24 25 126 127 128 129 130 131 132 134 135 137 138 140 141 142 143 144 145 146 147 148 149 150 211 214 234 237 240 243 245 247 249 
1 2 3 4 5 7 8 9 10 12 13 14 16 17 18 19 20 21 23 24 25 126 127 128 129 130 131 132 133 134 135 136 137 138 139 140 141 142 143 144 145 146 147 148 149 150 202 203 205 208 209 210 211 213 214 215 216 220 221 225 226 227 228 229 230 231 233 234 235 237 238 239 240 241 242 243 245 246 247 248 249 250 
1 2 4 5 7 8 9 10 11 12 14 15 17 18 19 20 21 22 23 24 25 126 127 128 129 131 132 133 134 135 136 137 138 140 141 142 143 144 145 146 147 148 149 150 201 202 205 207 208 209 210 211 212 213 214 215 216 217 220 221 222 223 225 226 227 228 233 234 235 237 238 239 241 242 243 245 247 249 
1 2 4 5 7 8 9 10 12 13 14 15 16 18 19 21 23 24 25 126 127 128 129 131 132 134 135 136 137 138 140 141 142 143 144 146 147 148 149 150 205 208 209 210 211 213 214 215 226 228 233 235 236 237 238 239 242 245 246 247 249 250 
1 2 3 4 5 6 7 8 9 10 11 12 13 14 15 16 17 19 20 21 23 24 25 126 127 128 129 130 131 132 133 134 135 136 137 138 139 140 141 142 143 144 145 146 147 148 149 150 202 205 209 210 211 213 214 215 216 218 222 235 237 238 239 241 246 249 
1 2 4 5 7 8 10 12 13 14 15 16 17 18 20 23 24 25 126 128 129 131 132 133 137 140 141 142 144 145 146 148 149 150 210 211 
1 2 3 4 6 7 10 11 13 15 16 18 19 22 23 24 25 129 130 132 133 136 142 143 145 150 201 204 222 
1 4 5 7 9 10 11 12 13 14 15 16 17 18 23 24 25 126 127 129 130 131 132 135 137 138 139 140 141 142 143 144 145 146 147 149 150 214 215 216 235 237 239 241 246 247 249 
2 4 6 7 10 11 13 16 20 23 133 212 
1 2 3 4 5 6 7 8 9 10 11 12 13 15 16 17 18 19 20 21 22 24 25 126 127 129 130 131 132 133 135 136 137 139 140 141 142 143 144 145 149 150 205 207 209 210 211 214 215 217 219 223 
1 2 3 4 5 6 7 8 9 10 11 12 13 14 15 16 17 18 19 20 21 23 25 126 127 128 129 131 132 133 134 135 136 137 138 139 140 141 142 143 144 145 146 147 148 149 150 210 211 212 214 216 223 231 233 235 237 241 245 249 
1 2 4 5 7 8 9 10 11 12 13 14 15 16 17 18 19 20 21 23 24 126 127 128 129 130 131 132 133 134 135 136 137 138 139 140 141 142 143 144 145 146 147 148 149 150 202 208 210 211 212 213 214 215 216 223 228 231 232 233 234 235 237 238 239 241 242 243 245 
32 33 35 37 42 44 49 50 92 
29 33 34 35 37 38 39 41 42 43 44 49 50 
29 31 35 45 46 47 49 
27 28 31 33 35 37 44 45 46 47 48 49 50 

28 29 33 35 37 44 45 46 47 49 
26 33 35 37 44 48 50 
26 27 29 31 32 34 35 36 37 38 39 41 42 43 44 45 48 49 50 
27 33 35 36 37 38 39 41 42 43 44 48 49 50 
26 27 28 29 31 32 33 34 36 37 38 39 41 42 43 44 45 46 47 48 49 50 92 
33 34 35 37 38 41 42 43 44 49 50 
26 27 29 31 32 33 34 35 36 38 39 41 42 43 44 45 48 49 50 
27 33 34 35 36 37 39 41 42 43 44 49 50 
27 33 34 35 37 38 41 42 43 44 48 49 
47 48 
27 33 34 35 36 37 38 39 42 43 44 49 
26 27 33 34 35 36 37 38 39 41 43 44 49 50 
27 33 34 35 36 37 38 39 41 42 44 49 
26 27 29 31 32 33 34 35 36 37 38 39 41 42 43 45 47 48 49 50 93 
28 29 31 33 35 37 44 46 47 48 49 50 
28 29 31 35 45 47 49 
28 29 31 35 40 44 45 46 48 49 
29 32 33 34 35 37 39 40 44 45 47 49 50 
26 27 28 29 31 33 34 35 36 37 38 39 41 42 43 44 45 46 47 48 50 
26 27 29 32 33 34 35 36 37 38 42 44 45 48 49 
52 53 54 55 56 57 58 59 60 62 63 64 65 66 68 69 70 71 72 73 75 
51 53 54 55 56 57 58 59 60 61 62 63 64 65 66 67 68 69 70 71 72 73 74 75 
51 52 54 55 56 57 58 59 60 62 63 64 65 66 68 69 70 71 72 73 75 
51 52 53 55 57 58 59 60 61 62 63 64 65 66 67 68 69 70 71 72 73 74 75 
51 52 53 54 56 57 58 59 60 62 63 64 65 66 68 69 70 71 72 73 75 
51 52 53 55 57 60 62 64 65 66 69 70 72 
51 52 53 54 55 56 58 59 60 61 62 63 64 65 66 67 68 69 70 71 72 73 74 75 
51 52 53 54 55 57 59 60 61 62 63 64 65 66 67 68 69 70 71 72 73 74 75 
51 52 53 54 55 57 58 60 61 62 63 64 65 66 67 68 69 70 71 72 73 74 75 
51 52 53 54 55 56 57 58 59 61 62 63 64 65 66 67 68 69 70 71 72 73 74 75 
52 54 57 58 59 60 62 63 64 65 66 67 68 69 70 71 72 73 74 75 
51 52 53 54 55 56 57 58 59 60 61 63 64 65 66 67 68 69 70 71 72 73 74 75 
51 52 53 54 55 57 58 59 60 61 62 64 65 66 67 68 69 70 71 72 73 74 75 
51 52 53 54 55 56 57 58 59 60 61 62 63 65 66 67 68 69 70 71 72 73 74 75 
51 52 53 54 55 56 57 58 59 60 61 62 63 64 66 67 68 69 70 71 72 73 74 75 
51 52 53 54 55 56 57 58 59 60 61 62 63 64 65 68 69 70 71 72 73 74 75 
52 54 57 58 59 60 61 62 63 64 65 69 70 71 72 73 74 75 
51 52 53 54 55 57 58 59 60 61 62 63 64 65 66 69 70 71 72 73 74 75 
51 52 53 54 55 56 57 58 59 60 61 62 63 64 65 66 67 68 70 71 72 73 74 75 165 
51 52 53 54 55 56 57 58 59 60 61 62 63 64 65 66 67 68 69 71 72 73 74 75 
51 52 53 54 55 57 58 59 60 61 62 63 64 65 66 67 68 69 70 72 73 74 75 108 109 112 114 116 117 118 123 125 
51 52 53 54 55 56 57 58 59 60 61 62 63 64 65 66 67 68 69 70 71 73 74 75 185 
51 52 53 54 55 57 58 59 60 61 62 63 64 65 66 67 68 69 70 71 72 74 75 108 109 112 114 116 117 118 123 125 
52 54 57 58 59 60 61 62 63 64 65 66 67 68 69 70 71 72 73 75 108 109 112 114 116 117 118 119 123 125 
51 52 53 54 55 57 58 59 60 61 62 63 64 65 66 67 68 69 70 71 72 73 74 
78 79 80 81 82 84 85 86 88 89 90 91 92 93 95 96 97 98 99 100 
81 87 97 
76 79 81 82 86 87 94 96 97 98 
76 78 80 81 82 84 85 86 87 88 89 90 91 92 93 95 96 97 98 99 100 
76 79 81 82 84 85 86 88 89 90 91 92 93 95 97 98 99 100 
76 77 78 79 80 84 86 87 89 95 96 97 98 100 
76 78 79 80 84 85 88 89 90 91 92 93 95 97 98 99 100 

76 79 80 81 82 85 86 88 89 90 91 92 93 95 97 98 99 100 
76 79 80 82 84 88 89 90 91 92 93 95 
76 78 79 80 81 84 87 88 96 97 98 100 
77 78 79 81 86 94 96 97 
76 79 80 82 84 85 86 89 90 91 92 93 95 97 98 99 100 
76 79 80 81 82 84 85 88 90 91 92 93 95 98 99 
76 79 80 82 84 85 88 89 91 93 95 97 98 99 100 188 
76 79 80 82 84 85 88 89 90 92 93 95 98 99 
26 35 76 79 80 82 84 85 88 89 91 93 95 98 
44 76 79 80 82 84 85 88 89 90 91 92 95 98 99 
78 87 96 
76 79 80 81 82 84 85 88 89 90 91 92 93 97 98 
76 78 79 81 86 87 94 97 98 100 
76 77 78 79 80 81 82 84 86 87 88 90 95 96 98 100 225 
76 78 79 80 81 82 84 86 88 89 90 91 92 93 95 96 97 99 100 
76 79 80 82 84 88 89 90 91 93 98 100 
76 79 80 81 82 84 86 88 90 96 97 98 99 
102 105 107 108 109 111 112 113 114 115 116 117 118 119 120 121 123 124 125 167 169 
101 105 107 108 109 111 112 113 114 115 116 117 118 119 120 121 123 124 125 153 158 160 164 167 169 171 
109 112 117 118 119 122 124 125 
108 109 112 114 116 117 118 119 121 125 
101 102 106 107 108 109 111 112 113 114 115 116 117 118 119 122 123 124 125 153 155 160 
105 107 108 109 111 112 113 114 116 117 118 119 120 123 124 125 
101 102 105 106 108 109 111 112 113 114 115 116 117 118 119 120 121 123 124 125 153 158 160 164 167 169 171 
71 73 74 101 102 104 105 106 107 109 111 112 113 114 115 116 117 118 119 120 121 123 124 125 153 158 160 164 
71 73 74 101 102 103 104 105 106 107 108 111 112 113 114 115 116 117 118 119 120 121 122 123 124 125 153 158 160 164 

101 102 105 106 107 108 109 112 113 114 115 116 117 118 119 120 121 123 124 125 153 158 160 164 
71 73 74 101 102 103 104 105 106 107 108 109 111 113 114 115 116 117 118 119 120 121 122 123 124 125 153 158 160 164 
101 102 105 106 107 108 109 111 112 114 115 116 117 118 119 120 121 123 124 125 166 
71 73 74 101 102 104 105 106 107 108 109 111 112 113 115 116 117 118 119 120 121 123 124 125 
101 102 105 107 108 109 111 112 113 114 116 117 118 119 120 121 123 124 125 153 158 160 164 167 169 171 
71 73 74 101 102 104 105 106 107 108 109 111 112 113 114 115 117 118 119 120 121 123 124 125 153 158 160 164 167 169 171 
71 73 74 101 102 103 104 105 106 107 108 109 111 112 113 114 115 116 118 119 120 121 122 123 124 125 153 158 160 164 166 
71 73 74 101 102 103 104 105 106 107 108 109 111 112 113 114 115 116 117 119 120 121 123 124 125 153 158 160 164 166 
74 101 102 103 104 105 106 107 108 109 111 112 113 114 115 116 117 118 120 121 122 123 124 125 
101 102 106 107 108 109 111 112 113 114 115 116 117 118 119 121 123 124 125 
101 102 104 107 108 109 111 112 113 114 115 116 117 118 119 120 123 124 125 153 158 160 163 164 167 169 171 
103 105 109 112 117 119 
71 73 74 101 102 105 106 107 108 109 111 112 113 114 115 116 117 118 119 120 121 124 125 169 171 
101 102 103 105 106 107 108 109 111 112 113 114 115 116 117 118 119 120 121 123 125 158 166 
71 73 74 101 102 103 104 105 106 107 108 109 111 112 113 114 115 116 117 118 119 120 121 123 124 153 158 160 164 
1 4 5 7 8 9 10 12 14 15 16 17 18 19 21 23 24 25 127 128 129 130 131 132 133 134 135 136 137 138 139 140 141 142 143 144 145 146 147 148 149 150 202 209 210 211 213 214 215 221 226 227 228 230 231 233 234 235 237 238 239 241 242 243 245 246 247 248 249 250 
1 2 4 5 7 8 10 12 13 14 15 16 17 18 21 23 24 25 126 128 129 131 132 133 134 135 136 137 138 139 140 141 142 143 144 145 146 147 148 149 150 205 207 209 215 218 230 231 235 237 239 243 245 246 247 249 
1 4 5 7 8 9 10 12 14 15 16 17 18 19 24 25 126 127 129 131 132 134 135 136 137 138 140 141 142 143 144 145 146 147 148 149 150 208 211 214 226 227 228 234 237 239 240 242 243 245 247 248 
1 4 5 7 8 9 10 12 13 14 15 16 17 18 19 20 21 23 24 25 126 127 128 130 131 132 133 134 135 136 137 138 139 140 141 142 143 144 145 146 147 148 149 150 203 209 210 214 226 227 231 232 234 235 236 237 238 239 242 245 246 247 250 
2 4 6 7 10 11 12 13 14 15 18 20 21 23 25 126 129 131 132 133 134 136 137 138 139 140 142 143 144 145 146 149 150 202 203 204 207 209 210 212 219 
1 2 4 5 7 8 9 10 12 14 15 16 17 18 19 21 23 24 25 126 127 128 129 130 132 133 134 135 136 137 138 139 140 141 142 143 144 145 146 147 148 149 150 209 210 211 213 214 215 216 221 225 226 227 228 229 230 231 232 233 234 235 237 238 239 240 241 242 243 245 246 247 248 249 250 
1 2 3 4 5 6 7 8 9 10 11 12 13 14 15 16 17 18 19 20 21 23 24 25 126 127 128 129 130 131 133 134 135 136 137 138 139 140 141 142 143 144 145 146 147 148 149 150 202 207 210 211 212 213 214 215 216 219 223 226 227 228 230 231 232 233 234 235 237 238 239 240 241 242 243 244 245 246 247 248 249 250 
1 2 3 4 6 7 10 11 13 15 16 18 19 20 22 23 24 25 126 127 129 130 131 132 134 135 136 137 139 140 141 142 143 144 145 146 147 149 150 201 204 209 217 231 232 237 250 
1 4 5 7 8 9 12 14 15 16 17 18 24 25 126 127 128 129 130 131 132 133 135 136 137 138 139 140 141 142 143 144 145 146 147 148 149 150 208 209 210 211 214 221 226 227 228 229 230 231 232 233 234 235 237 238 239 240 241 242 243 245 246 247 248 249 250 
1 4 5 7 8 9 12 14 15 16 17 18 21 23 24 25 126 127 128 129 131 132 133 134 137 138 140 141 142 143 144 145 146 147 148 149 150 208 210 211 213 214 215 216 220 221 223 225 226 228 230 233 234 237 239 240 241 243 245 250 
1 2 4 6 7 10 12 13 15 16 17 18 20 23 24 25 126 127 128 129 130 131 132 133 134 137 138 139 140 141 142 143 144 145 146 147 148 149 150 226 227 228 231 232 235 236 237 238 242 246 250 
1 4 5 7 8 9 10 12 14 15 16 17 18 19 21 23 24 25 126 127 128 129 130 131 132 133 134 135 136 138 139 140 141 142 143 144 145 146 147 148 149 150 208 209 210 211 213 214 215 216 220 221 225 226 227 228 229 230 231 233 234 235 237 238 239 240 241 242 243 245 246 247 248 249 250 
1 4 5 7 8 9 10 12 14 15 16 17 18 21 24 25 126 127 128 129 130 131 132 134 135 136 137 139 140 141 142 143 144 145 146 147 148 149 150 210 211 213 214 220 225 226 227 228 229 230 233 234 237 238 239 243 245 248 250 
1 2 3 4 6 7 10 12 13 15 18 21 23 24 25 126 127 129 130 131 132 133 134 136 137 138 140 141 142 143 144 145 146 147 148 149 150 231 232 235 237 244 246 247 250 
1 2 3 4 5 7 8 9 10 11 12 13 14 15 16 17 18 19 21 23 24 25 126 127 128 129 130 131 132 133 134 135 136 137 138 139 141 142 143 144 145 146 147 148 149 150 202 205 208 209 210 211 213 214 215 216 220 221 225 226 227 228 229 230 231 232 233 234 235 236 237 238 239 240 241 242 243 245 246 247 248 249 250 
1 4 5 7 8 9 10 12 14 15 16 17 18 19 21 23 24 25 126 127 128 129 131 132 133 134 135 136 137 138 139 140 142 143 144 145 146 147 148 149 150 210 211 214 215 225 226 227 228 229 230 231 233 234 235 237 238 239 240 241 242 243 245 246 247 248 249 250 
1 4 7 8 10 11 12 13 14 15 16 17 18 19 20 21 23 24 25 126 127 128 129 130 131 132 133 134 135 136 137 138 139 140 141 143 144 145 146 147 148 149 150 210 214 215 216 226 227 229 230 231 232 233 234 235 237 238 239 240 241 242 243 244 245 246 247 249 250 
1 2 4 5 6 7 8 9 10 11 12 13 14 15 16 17 18 20 21 23 24 25 126 127 128 129 130 131 132 133 134 135 136 137 138 139 140 141 142 144 145 146 147 148 149 150 207 215 226 227 228 230 231 232 233 234 235 237 238 239 240 241 242 243 245 246 247 248 249 250 
1 4 5 7 8 9 10 12 13 14 15 16 17 18 19 21 23 24 25 126 127 128 129 130 131 132 133 134 135 136 137 138 139 140 141 142 143 145 146 147 148 149 150 205 209 210 211 214 215 226 228 230 231 233 234 235 237 238 239 240 241 242 243 245 246 247 248 249 
1 2 4 5 6 7 8 9 10 11 12 13 14 15 16 18 19 20 21 23 24 25 126 127 128 129 130 131 132 133 134 135 136 137 138 139 140 141 142 143 144 146 147 148 149 150 202 203 204 209 210 227 231 232 237 238 242 
1 4 5 7 8 10 12 14 15 16 17 18 19 21 24 25 126 127 128 129 130 131 132 133 134 135 136 137 138 139 140 141 142 143 144 145 147 148 149 150 211 223 227 231 232 234 235 237 238 239 241 242 243 245 246 247 248 249 
1 4 5 8 9 10 12 14 15 16 17 18 21 24 25 126 127 128 129 131 132 133 134 135 136 137 138 139 140 141 142 143 144 145 146 148 149 150 210 211 214 220 225 226 227 228 229 230 231 232 233 234 236 237 238 239 241 242 243 245 247 248 249 250 
1 2 4 5 7 8 9 10 12 13 14 15 16 17 18 19 24 25 126 127 128 129 131 132 134 135 136 137 138 139 140 141 142 143 144 145 146 147 149 150 208 210 211 214 215 225 226 227 228 230 231 234 235 237 238 239 240 241 242 243 245 246 247 248 249 250 
1 4 5 6 7 8 9 10 11 12 13 14 15 16 17 18 19 21 23 24 25 126 127 128 129 130 131 132 133 134 135 136 137 138 139 140 141 142 143 144 145 146 147 148 150 209 216 227 230 231 233 234 235 237 238 239 240 241 242 243 245 246 247 249 
1 2 3 4 5 7 8 9 10 11 12 13 14 15 16 17 18 19 20 21 23 24 25 126 127 128 129 130 131 132 133 134 135 136 137 138 139 140 141 142 143 144 145 146 147 148 149 201 202 207 208 209 210 211 212 214 215 216 217 221 223 226 227 228 230 231 232 233 234 235 237 238 239 241 242 243 244 245 246 247 248 249 250 
152 153 154 155 156 157 158 159 160 161 162 163 164 165 168 172 173 175 
151 153 154 155 156 157 158 159 160 161 163 164 165 166 168 171 172 173 174 175 
102 105 107 108 109 111 112 115 116 117 118 121 125 151 152 154 155 157 158 159 160 161 163 164 165 166 167 168 169 170 171 172 174 
151 152 153 155 156 158 160 161 163 164 165 166 171 172 174 
105 151 152 153 154 156 157 158 159 160 161 163 164 165 166 167 168 169 170 171 172 173 174 
151 152 154 155 157 158 162 168 173 175 
151 152 153 155 156 158 159 160 162 164 165 166 168 173 174 175 
102 107 108 109 111 112 115 116 117 118 121 124 125 151 152 153 154 155 156 157 159 160 161 163 164 165 166 167 168 169 170 171 172 174 
151 152 153 155 157 158 160 161 162 163 164 165 168 172 173 175 
102 105 107 108 109 111 112 115 116 117 118 121 125 151 152 153 154 155 157 158 159 161 163 164 165 166 167 168 169 170 171 172 174 
151 152 153 154 155 158 159 160 163 164 165 168 171 172 173 174 
151 156 157 159 165 168 172 173 174 175 
121 151 152 153 154 155 158 159 160 161 164 165 166 167 168 169 170 171 172 173 174 
102 107 108 109 111 112 115 116 117 118 121 125 151 152 153 154 155 157 158 159 160 161 163 165 166 167 168 169 170 171 172 174 
69 151 152 153 154 155 157 158 159 160 161 162 163 164 166 167 168 169 170 171 172 173 174 175 
113 117 118 124 152 153 154 155 157 158 160 163 164 165 167 169 171 172 173 174 
101 102 107 115 116 121 153 155 158 160 163 164 165 166 169 171 172 
151 152 153 155 156 157 158 159 160 161 162 163 164 165 172 173 174 175 
101 102 107 115 116 121 123 153 155 158 160 163 164 165 166 167 171 174 
153 155 158 160 163 164 165 171 
102 107 115 116 121 123 152 153 154 155 158 160 161 163 164 165 166 167 169 170 172 174 
151 152 153 154 155 158 159 160 161 162 163 164 165 166 167 168 171 173 174 
151 152 155 156 157 159 161 162 163 165 166 168 172 174 175 
152 153 154 155 157 158 160 161 162 163 164 165 166 168 169 171 172 173 
151 152 156 157 159 162 165 168 173 
177 178 179 180 181 182 183 184 185 186 187 188 189 190 191 193 194 195 196 197 198 199 225 
176 178 179 180 181 182 183 184 185 186 187 188 189 190 191 193 194 195 196 197 198 199 200 
176 177 179 180 181 182 183 184 185 186 187 188 189 190 191 192 193 194 195 196 197 198 199 200 
176 177 178 180 181 182 183 184 185 186 187 188 189 190 191 192 194 195 196 197 198 199 
176 177 178 179 181 182 183 185 186 187 188 189 190 191 192 193 194 195 196 197 198 199 
176 177 178 179 180 182 183 185 186 187 188 189 190 191 192 193 194 196 197 198 199 
176 177 178 179 180 181 183 187 188 190 193 194 195 196 197 198 199 
5 176 177 178 179 180 181 182 185 186 187 188 189 190 191 192 194 195 196 197 198 199 
176 177 178 179 187 194 196 200 
72 176 177 178 179 180 181 183 186 187 188 189 190 191 192 197 198 199 
176 177 178 179 180 181 183 185 187 188 189 190 192 194 197 198 199 
176 177 178 179 180 181 182 183 184 185 186 188 189 190 191 192 193 194 195 196 197 198 199 
90 176 177 178 179 180 181 182 183 185 186 187 189 190 191 192 194 195 196 197 198 199 
176 177 178 179 180 181 183 185 186 187 188 190 191 192 197 198 199 
176 177 178 179 180 181 182 183 185 186 187 188 189 191 192 194 195 196 197 198 199 
176 177 178 179 180 181 183 185 187 188 189 190 192 194 196 197 198 199 
178 179 180 181 183 185 186 187 188 189 190 191 197 198 199 
176 177 178 180 181 182 187 194 195 196 197 199 
176 177 178 179 180 181 182 183 184 186 187 188 190 191 193 195 196 197 198 199 200 
176 177 178 179 180 182 183 187 188 190 193 194 196 198 199 200 
176 177 178 179 180 181 182 183 184 187 188 190 191 193 194 195 197 198 199 200 
176 177 178 179 180 181 182 183 185 186 187 188 189 190 191 192 193 194 196 198 199 
176 177 178 179 180 181 182 183 185 186 187 188 189 190 191 192 194 195 196 197 199 
176 177 178 179 180 181 182 183 185 186 187 188 189 190 191 192 193 194 195 196 197 198 
177 178 184 194 195 196 
1 2 4 7 11 16 20 133 150 202 204 206 207 209 212 214 215 216 217 219 221 222 223 
1 4 9 12 15 16 18 25 126 130 132 140 145 150 201 203 204 207 208 209 210 211 212 213 214 215 216 217 219 221 223 224 
1 4 10 15 129 130 145 202 204 209 210 211 212 213 214 215 216 219 221 223 224 
4 6 7 13 20 130 133 145 201 202 203 209 210 212 215 219 222 223 
1 9 12 13 15 16 17 18 23 127 140 144 207 208 209 210 211 213 214 215 216 218 219 220 225 
4 201 207 209 217 218 219 221 222 223 
1 2 12 16 23 127 130 132 143 150 201 202 205 206 208 209 210 211 212 213 214 215 216 217 218 219 223 225 232 
1 5 8 12 15 16 17 25 128 134 135 137 140 148 150 202 205 207 209 210 211 212 213 214 215 217 220 221 223 225 
1 2 4 6 8 9 10 12 15 16 17 18 23 126 127 129 130 131 133 134 137 140 144 145 149 150 201 202 203 204 205 206 207 208 210 211 212 213 214 215 216 217 219 220 221 223 224 225 230 232 235 236 237 238 246 247 250 
1 4 5 7 8 9 12 15 16 17 18 19 23 24 25 126 129 130 131 132 134 135 137 138 140 141 142 144 145 147 148 150 202 203 204 205 207 208 209 211 212 213 214 215 216 217 219 220 221 222 223 224 225 228 230 233 237 238 239 249 
1 4 5 7 8 9 12 14 15 16 17 18 19 23 24 25 126 128 131 132 134 135 137 138 140 141 144 146 147 148 150 202 203 205 207 208 209 210 212 213 214 215 216 220 221 223 225 
1 4 7 10 11 12 16 22 24 25 130 132 150 201 202 203 204 207 208 209 210 211 214 215 216 217 219 221 222 223 224 
1 9 12 15 16 17 18 25 126 131 132 135 137 138 140 202 203 205 207 208 209 210 211 214 215 216 219 220 221 224 225 228 233 239 246 
1 4 5 7 8 9 10 12 14 15 16 17 18 21 23 24 25 126 128 129 131 132 134 135 137 138 140 141 142 144 147 148 150 201 202 203 205 207 208 209 210 211 212 213 215 216 217 220 221 223 224 225 226 227 229 230 234 237 239 243 245 248 250 
1 4 5 7 8 9 12 13 15 16 17 18 21 23 25 126 127 131 132 135 137 140 141 142 143 144 148 150 201 202 203 204 205 207 208 209 210 211 212 213 214 216 217 218 219 220 221 222 223 224 225 239 
1 4 7 8 9 10 12 15 16 18 21 24 25 131 132 135 137 140 142 149 150 201 202 203 205 207 209 210 211 212 213 214 215 221 222 223 224 225 
2 4 7 10 11 16 23 133 150 201 202 206 207 208 209 210 212 214 215 218 219 221 222 223 224 
6 13 18 127 205 206 207 215 217 219 222 
7 13 23 130 132 201 202 203 204 205 206 207 209 210 212 213 215 217 218 222 224 225 
1 8 9 12 15 16 135 137 138 140 147 205 208 209 210 211 213 214 215 221 225 234 
1 4 5 8 9 12 15 16 126 131 134 135 137 140 150 201 202 203 206 208 209 210 211 212 213 214 215 216 217 220 223 224 225 239 
6 7 13 16 18 20 201 204 206 210 212 215 216 217 218 219 223 
2 4 12 16 23 24 25 132 135 146 150 201 202 203 204 206 207 208 209 210 211 212 214 215 216 217 221 222 
4 10 202 203 209 210 212 213 214 215 216 217 219 221 
1 8 12 15 16 97 131 135 137 138 140 141 147 148 176 205 207 208 209 210 211 213 214 215 216 219 220 221 234 245 248 
1 8 9 10 12 15 16 17 126 128 129 131 132 134 135 136 137 138 140 141 142 143 144 147 148 150 214 227 228 229 230 231 232 233 234 235 236 237 238 239 240 241 242 243 244 245 246 247 248 249 250 
1 8 12 15 16 126 128 129 131 132 134 136 137 138 140 141 142 143 145 146 147 148 149 150 214 226 228 229 230 231 232 233 234 235 236 237 238 239 240 241 242 243 245 246 247 248 249 250 
1 8 9 12 15 16 17 25 126 128 131 132 134 135 136 137 138 140 141 143 144 147 148 150 210 213 226 227 229 230 231 232 233 234 235 237 238 239 240 241 242 243 244 245 246 247 248 249 250 
1 8 12 15 131 134 137 138 140 141 142 147 214 226 227 228 230 231 232 233 234 235 236 237 238 239 241 242 243 245 246 247 248 249 250 
1 8 9 12 15 126 127 131 132 134 135 137 138 140 141 142 143 144 147 148 149 150 209 210 214 226 227 228 229 231 232 233 234 235 236 237 238 239 240 241 242 243 245 246 247 248 249 250 
1 10 12 15 24 25 126 127 129 131 132 133 134 136 137 139 140 141 142 143 144 145 146 147 148 149 150 226 227 228 229 230 232 233 234 235 236 237 238 239 240 241 242 243 244 245 246 247 248 249 250 
12 25 129 131 132 133 134 136 139 140 142 143 145 146 147 150 207 209 226 227 228 229 230 231 233 234 235 236 237 238 239 241 242 243 245 246 247 250 
1 4 7 8 9 10 12 15 16 17 24 25 126 131 132 134 135 137 138 140 141 142 143 144 147 149 150 210 213 226 227 228 229 230 231 232 234 235 237 238 239 240 241 242 243 245 246 247 248 249 250 
1 8 9 12 14 15 16 25 126 128 129 131 132 134 135 137 138 140 141 142 143 144 146 147 148 149 150 214 220 225 226 227 228 229 230 231 232 233 235 236 237 238 239 240 241 242 243 245 246 247 248 249 250 
1 4 8 9 10 12 13 15 16 17 18 21 24 25 126 127 129 131 132 134 136 137 139 140 141 142 143 144 146 148 149 150 209 226 227 228 229 230 231 232 233 234 236 237 238 239 240 241 242 243 244 245 246 247 248 249 250 
1 17 129 136 140 147 209 226 227 229 230 231 232 234 235 237 238 239 242 245 246 247 249 250 
1 5 8 9 10 12 14 15 16 17 18 21 24 25 126 127 128 129 131 132 133 134 135 136 137 138 139 140 141 142 143 144 145 146 147 148 149 150 209 210 214 226 227 228 229 230 231 232 233 234 235 236 238 239 240 241 242 243 244 245 246 247 248 249 250 
1 8 9 10 12 15 16 17 18 25 126 129 131 132 134 136 137 138 140 141 142 143 144 145 146 147 148 149 150 209 210 226 227 228 229 230 231 232 233 234 235 236 237 239 240 241 242 243 244 245 246 247 248 249 250 
1 4 8 9 10 12 15 16 17 18 21 25 126 127 128 129 131 132 134 135 137 138 140 141 142 143 144 146 147 148 149 150 210 213 214 215 221 226 227 228 229 230 231 232 233 234 235 236 237 238 240 241 242 243 244 245 246 247 248 249 250 
1 12 14 15 128 131 132 134 135 137 140 141 142 143 144 148 149 226 227 228 230 231 233 234 235 237 238 239 241 242 243 245 246 247 248 249 250 
1 10 12 15 16 18 21 24 25 126 131 132 134 135 137 140 141 142 143 144 146 147 148 149 150 226 227 228 229 230 231 232 233 234 235 237 238 239 240 242 243 244 245 246 247 248 249 250 
1 10 12 15 16 17 25 126 128 129 131 132 134 136 137 140 141 142 143 144 145 146 147 148 149 150 226 227 228 229 230 231 232 233 234 235 236 237 238 239 240 241 243 244 245 246 247 248 249 250 
1 5 8 9 12 14 15 16 25 126 127 128 131 132 134 135 137 138 140 141 142 143 144 146 147 148 149 150 214 226 227 228 229 230 231 232 233 234 235 237 238 239 240 241 242 245 246 247 248 249 250 
3 4 10 132 139 142 150 226 228 231 235 237 238 239 241 242 246 247 249 
1 5 8 9 12 14 15 16 17 24 25 126 127 128 129 131 132 134 135 137 138 140 141 142 143 144 146 147 148 149 150 214 225 226 227 228 229 230 231 232 233 234 235 236 237 238 239 240 241 242 243 246 247 248 249 250 
1 4 6 8 9 10 12 13 15 17 18 21 126 127 129 131 132 134 136 137 139 140 141 142 143 144 146 148 149 150 209 213 226 227 228 229 230 231 232 233 234 235 236 237 238 239 240 241 242 243 244 245 247 248 249 250 
1 10 12 14 15 16 17 21 126 127 128 129 131 132 134 137 139 140 141 142 143 144 146 147 148 149 150 209 226 227 228 229 230 231 232 233 234 235 236 237 238 239 240 241 242 243 244 245 246 248 249 250 
1 8 12 15 126 128 131 132 134 137 138 140 141 143 144 146 147 148 150 214 225 226 227 228 229 230 231 233 234 235 237 238 239 240 241 242 243 245 246 247 249 250 
1 4 8 10 12 14 15 16 17 18 21 24 126 127 131 132 134 137 140 141 142 143 144 146 147 148 149 150 210 226 227 228 229 230 231 233 234 235 236 237 238 239 240 241 242 243 244 245 246 247 248 250 
1 8 12 15 17 126 129 131 132 133 134 135 136 137 138 139 140 141 142 143 147 148 150 209 214 226 227 228 229 230 231 232 233 234 235 236 237 238 239 240 241 242 243 245 246 247 248 249 
